p cnf 20 91
16 19 -20 0
-16 -17 -18 0
14 16 19 0
14 -16 17 0
-14 15 19 0
13 -17 -19 0
13 -14 -19 0
13 -14 15 0
-12 18 -20 0
-12 -16 17 0
-11 15 -18 0
11 13 -14 0
-10 14 -20 0
10 -13 20 0
-9 -18 20 0
9 16 -19 0
9 -15 18 0
-9 -13 16 0
9 -12 -20 0
9 11 20 0
9 -11 12 0
-9 -11 12 0
-8 -17 18 0
-8 -13 19 0
8 13 16 0
-8 -11 14 0
8 10 -18 0
7 -15 19 0
-7 -10 13 0
6 -19 20 0
-6 14 20 0
-6 -14 -20 0
6 -13 -14 0
6 -12 -20 0
6 9 -18 0
6 -9 14 0
6 7 20 0
6 7 12 0
-6 -7 -8 0
5 13 -17 0
5 -11 -20 0
-5 -10 -17 0
5 9 -19 0
5 -8 -17 0
5 6 -19 0
-4 12 -18 0
4 12 17 0
4 10 19 0
4 10 14 0
4 9 19 0
4 -9 -11 0
3 -17 -19 0
3 -14 -15 0
3 -11 18 0
3 -11 15 0
-3 -11 14 0
3 -8 14 0
-3 7 16 0
-3 -6 16 0
3 6 -7 0
3 5 9 0
3 5 6 0
3 -5 -6 0
-3 4 16 0
3 -4 -8 0
2 19 20 0
-2 -16 18 0
-2 -15 18 0
2 -15 17 0
2 13 20 0
-2 -13 -18 0
2 -13 -15 0
-2 12 18 0
2 8 -18 0
-2 7 -12 0
-2 6 -16 0
-2 6 -13 0
-2 6 9 0
-2 -5 18 0
2 5 -16 0
2 -4 5 0
-1 -13 16 0
-1 12 -20 0
-1 -12 19 0
1 -9 -15 0
-1 -7 10 0
-1 -6 -7 0
-1 -5 10 0
1 -4 -12 0
1 -3 -7 0
-1 2 13 0
